NAME: tsp15_27
COMMENT: 15-tsp problem (Padberg/Rinaldi)
TYPE: TSP
DIMENSION: 15
EDGE_WEIGHT_TYPE : EUC_2D
NODE_COORD_SECTION
1.00 34.18 11.50
2.00 9.65 34.91
3.00 39.53 7.94
4.00 17.74 18.98
5.00 31.01 17.71
6.00 13.71 17.64
7.00 16.80 28.19
8.00 2.95 28.68
9.00 29.90 26.30
10.00 17.79 1.44
11.00 22.26 33.38
12.00 4.60 8.45
13.00 7.72 38.06
14.00 11.06 24.97
15.00 38.13 23.23
